jpf-symbc-bounded/src/examples/symbolicheap/bounded/bounddb/BinTree-03.cnf
p cnf 142 139               
-1 -16 37 0
-2 -1 -17 0
17 -23 0
-1 18 0
-2 18 0
1 2 -18 0
-18 -3 -19 0
19 -23 0
-3 20 0
-18 20 0
3 18 -20 0
-20 -4 -21 0
21 -23 0
4 20 -22 0
22 -23 0
-6 -5 -24 0
24 -28 0
-8 -7 -26 0
26 -28 0
-11 -10 -29 0
29 -33 0
-10 30 0
-11 30 0
10 11 -30 0
-30 -12 -31 0
31 -33 0
33 -36 0
-14 -13 -34 0
34 -36 0
15 -41 0
12 30 -32 0
32 -41 0
13 14 -35 0
35 -41 0
41 -74 0
-4 -16 40 0
-40 -42 0
3 -39 0
16 -39 0
-3 -16 39 0
-39 -42 0
42 -73 0
-39 67 0
2 -38 0
16 -38 0
-2 -16 38 0
38 -61 0
-6 44 0
-11 44 0
6 11 -44 0
44 -61 0
-38 -44 61 0
-61 67 0
39 61 -67 0
-67 38 -69 0
69 -72 0
-40 68 0
-12 54 0
-8 46 0
-14 46 0
8 14 -46 0
-44 -46 49 0
-49 54 0
-38 -54 62 0
-62 68 0
-39 -46 64 0
-64 68 0
38 -70 0
67 -70 0
-68 70 -71 0
71 -72 0
72 -73 0
73 -74 0
74 -131 0
9 -75 0
5 6 -25 0
25 -75 0
7 8 -27 0
27 -75 0
75 -130 0
-68 -67 -91 0
-12 -81 0
46 -81 0
12 -46 81 0
-8 -81 113 0
5 -110 0
12 -110 0
7 -112 0
81 -112 0
110 112 -114 0
6 -111 0
12 -111 0
114 111 115 0
-113 -115 116 0
44 95 0
-12 95 0
12 96 0
-44 96 0
81 -96 97 0
-95 -97 98 0
-11 -12 104 0
14 -106 0
81 -106 0
12 106 -108 0
10 -103 0
12 -103 0
13 -105 0
81 -105 0
103 105 -107 0
108 107 118 0
-104 -118 119 0
-98 -119 120 0
-116 -120 121 0
-121 -122 0
81 12 82 0
-12 80 0
-46 80 0
-44 -80 92 0
-82 -92 117 0
-117 -122 0
91 122 -123 0
123 -130 0
130 -131 0
-6 -11 133 0
-133 -38 -134 0
134 -141 0
-8 -14 136 0
-136 -67 -137 0
137 -141 0
-46 -12 -139 0
-68 139 -140 0
140 -141 0
-37 0
16 0
23 0
28 0
36 0
131 0
141 0
