jpf-symbc-bounded/src/examples/symbolicheap/bounded/bounddb/BinTree-03.txt
#BinTree_0
@left
@right
BinTree/BinTree_0/left/BinTree_1
BinTree/BinTree_0/left/null
BinTree/BinTree_0/right/BinTree_1
BinTree/BinTree_0/right/BinTree_2
BinTree/BinTree_0/right/null
BinTree/BinTree_1/left/BinTree_2
BinTree/BinTree_1/left/null
BinTree/BinTree_1/right/BinTree_2
BinTree/BinTree_1/right/null
BinTree/BinTree_2/left/null
BinTree/BinTree_2/right/null
